<number of tasks>
1000

<cycle time>
1000

<order strength>
0,895


<task times>
1 86
2 53
3 236
4 92
5 34
6 124
7 116
8 172
9 120
10 95
11 92
12 214
13 126
14 56
15 209
16 68
17 149
18 212
19 59
20 42
21 124
22 159
23 45
24 75
25 141
26 55
27 30
28 26
29 179
30 137
31 111
32 249
33 116
34 292
35 69
36 98
37 199
38 108
39 52
40 101
41 24
42 269
43 42
44 43
45 262
46 154
47 64
48 98
49 140
50 43
51 96
52 85
53 117
54 41
55 28
56 67
57 160
58 115
59 165
60 38
61 107
62 191
63 223
64 223
65 98
66 121
67 128
68 75
69 340
70 36
71 76
72 57
73 28
74 80
75 34
76 110
77 83
78 128
79 127
80 20
81 121
82 37
83 35
84 137
85 73
86 195
87 101
88 68
89 26
90 161
91 75
92 179
93 235
94 198
95 141
96 154
97 85
98 127
99 127
100 72
101 217
102 240
103 158
104 94
105 157
106 116
107 173
108 118
109 125
110 92
111 22
112 59
113 117
114 95
115 50
116 159
117 187
118 280
119 74
120 41
121 330
122 61
123 84
124 129
125 234
126 184
127 83
128 181
129 230
130 69
131 109
132 204
133 64
134 133
135 262
136 135
137 50
138 127
139 174
140 63
141 156
142 177
143 138
144 227
145 163
146 302
147 130
148 191
149 39
150 48
151 261
152 91
153 46
154 179
155 122
156 172
157 149
158 57
159 150
160 147
161 234
162 145
163 232
164 199
165 162
166 107
167 106
168 165
169 96
170 114
171 273
172 128
173 53
174 100
175 79
176 189
177 174
178 254
179 148
180 206
181 197
182 55
183 170
184 118
185 195
186 23
187 158
188 94
189 287
190 85
191 149
192 137
193 27
194 146
195 209
196 222
197 26
198 196
199 63
200 111
201 277
202 39
203 84
204 112
205 57
206 83
207 141
208 50
209 216
210 113
211 133
212 219
213 96
214 109
215 322
216 20
217 140
218 163
219 50
220 63
221 55
222 344
223 208
224 40
225 20
226 98
227 228
228 103
229 79
230 31
231 206
232 159
233 113
234 189
235 186
236 51
237 98
238 297
239 162
240 164
241 89
242 419
243 204
244 193
245 134
246 138
247 57
248 212
249 127
250 24
251 292
252 42
253 211
254 143
255 156
256 115
257 21
258 177
259 155
260 119
261 102
262 121
263 313
264 176
265 191
266 140
267 279
268 159
269 161
270 130
271 172
272 58
273 162
274 44
275 207
276 110
277 121
278 164
279 183
280 178
281 89
282 43
283 55
284 152
285 219
286 126
287 218
288 118
289 46
290 226
291 71
292 182
293 22
294 120
295 148
296 338
297 190
298 27
299 132
300 111
301 345
302 100
303 234
304 303
305 120
306 130
307 181
308 168
309 149
310 81
311 137
312 140
313 200
314 90
315 169
316 30
317 55
318 210
319 41
320 180
321 76
322 141
323 118
324 157
325 58
326 68
327 37
328 75
329 80
330 161
331 209
332 175
333 86
334 190
335 86
336 56
337 55
338 501
339 158
340 84
341 58
342 165
343 195
344 79
345 35
346 54
347 122
348 114
349 137
350 20
351 130
352 54
353 73
354 58
355 165
356 200
357 54
358 58
359 155
360 105
361 202
362 169
363 133
364 103
365 166
366 223
367 257
368 73
369 94
370 165
371 69
372 134
373 145
374 166
375 358
376 125
377 204
378 72
379 162
380 161
381 177
382 41
383 77
384 115
385 240
386 122
387 94
388 98
389 113
390 179
391 105
392 123
393 100
394 81
395 235
396 36
397 132
398 213
399 66
400 160
401 140
402 74
403 165
404 289
405 224
406 70
407 67
408 178
409 125
410 34
411 77
412 61
413 50
414 170
415 192
416 143
417 154
418 112
419 211
420 42
421 50
422 241
423 139
424 110
425 175
426 427
427 121
428 25
429 72
430 96
431 152
432 232
433 52
434 99
435 297
436 123
437 28
438 122
439 154
440 126
441 102
442 262
443 158
444 125
445 195
446 273
447 28
448 151
449 109
450 278
451 168
452 96
453 130
454 39
455 230
456 34
457 290
458 188
459 106
460 52
461 252
462 86
463 191
464 62
465 204
466 93
467 155
468 146
469 28
470 208
471 134
472 109
473 60
474 81
475 230
476 109
477 118
478 147
479 61
480 228
481 227
482 160
483 132
484 56
485 38
486 147
487 132
488 141
489 97
490 25
491 126
492 119
493 350
494 74
495 127
496 197
497 85
498 147
499 113
500 304
501 72
502 153
503 160
504 57
505 131
506 125
507 49
508 263
509 51
510 35
511 140
512 97
513 103
514 142
515 228
516 100
517 99
518 165
519 73
520 107
521 145
522 119
523 60
524 161
525 48
526 136
527 112
528 385
529 219
530 261
531 183
532 67
533 116
534 119
535 188
536 31
537 155
538 139
539 154
540 201
541 66
542 116
543 185
544 179
545 87
546 135
547 96
548 167
549 163
550 81
551 119
552 70
553 202
554 105
555 148
556 212
557 45
558 98
559 68
560 214
561 163
562 116
563 160
564 59
565 101
566 71
567 52
568 112
569 77
570 120
571 102
572 99
573 171
574 157
575 143
576 283
577 134
578 93
579 229
580 103
581 88
582 104
583 81
584 184
585 76
586 210
587 248
588 24
589 124
590 191
591 294
592 152
593 163
594 110
595 78
596 128
597 246
598 292
599 132
600 46
601 244
602 153
603 38
604 41
605 55
606 302
607 59
608 73
609 191
610 125
611 127
612 136
613 73
614 49
615 208
616 253
617 30
618 67
619 39
620 108
621 173
622 120
623 102
624 49
625 49
626 57
627 136
628 63
629 183
630 58
631 22
632 185
633 237
634 207
635 144
636 28
637 181
638 269
639 31
640 92
641 187
642 63
643 60
644 173
645 195
646 102
647 222
648 264
649 93
650 306
651 139
652 78
653 232
654 53
655 171
656 265
657 220
658 95
659 164
660 238
661 202
662 171
663 242
664 276
665 163
666 193
667 231
668 216
669 115
670 110
671 111
672 205
673 87
674 88
675 124
676 233
677 71
678 173
679 183
680 34
681 240
682 98
683 72
684 21
685 98
686 190
687 175
688 203
689 167
690 102
691 55
692 126
693 51
694 144
695 190
696 48
697 149
698 204
699 135
700 61
701 111
702 51
703 190
704 108
705 190
706 48
707 37
708 29
709 276
710 124
711 53
712 48
713 102
714 69
715 179
716 37
717 296
718 32
719 116
720 194
721 166
722 290
723 22
724 162
725 144
726 41
727 123
728 68
729 53
730 103
731 166
732 205
733 28
734 108
735 162
736 105
737 73
738 112
739 153
740 183
741 230
742 58
743 214
744 21
745 91
746 99
747 36
748 26
749 138
750 146
751 35
752 233
753 187
754 169
755 130
756 28
757 30
758 65
759 74
760 455
761 107
762 239
763 147
764 198
765 108
766 129
767 189
768 89
769 84
770 109
771 61
772 135
773 156
774 147
775 157
776 133
777 82
778 130
779 34
780 55
781 79
782 121
783 129
784 137
785 216
786 85
787 76
788 217
789 318
790 312
791 197
792 60
793 300
794 98
795 48
796 174
797 110
798 199
799 85
800 171
801 84
802 98
803 82
804 383
805 111
806 71
807 43
808 105
809 151
810 114
811 278
812 79
813 139
814 203
815 81
816 257
817 98
818 83
819 159
820 139
821 102
822 261
823 124
824 253
825 227
826 134
827 32
828 235
829 109
830 232
831 52
832 92
833 164
834 158
835 104
836 242
837 77
838 130
839 91
840 75
841 233
842 239
843 183
844 35
845 53
846 27
847 47
848 83
849 117
850 198
851 79
852 216
853 303
854 115
855 76
856 266
857 178
858 153
859 74
860 189
861 44
862 143
863 365
864 178
865 198
866 128
867 40
868 130
869 107
870 194
871 106
872 45
873 26
874 25
875 48
876 27
877 159
878 239
879 234
880 41
881 191
882 233
883 162
884 102
885 53
886 116
887 74
888 142
889 186
890 172
891 261
892 154
893 163
894 98
895 66
896 58
897 250
898 170
899 208
900 330
901 126
902 154
903 73
904 24
905 295
906 75
907 300
908 223
909 111
910 107
911 126
912 60
913 172
914 50
915 202
916 278
917 27
918 151
919 83
920 125
921 276
922 115
923 151
924 89
925 115
926 151
927 219
928 236
929 25
930 298
931 141
932 88
933 180
934 256
935 55
936 269
937 45
938 92
939 339
940 209
941 312
942 170
943 180
944 183
945 193
946 222
947 32
948 199
949 120
950 41
951 122
952 147
953 165
954 138
955 219
956 127
957 119
958 144
959 73
960 28
961 92
962 212
963 126
964 134
965 51
966 32
967 100
968 225
969 208
970 158
971 146
972 96
973 75
974 241
975 34
976 64
977 55
978 29
979 45
980 99
981 190
982 131
983 90
984 155
985 106
986 106
987 100
988 73
989 95
990 118
991 261
992 109
993 192
994 201
995 212
996 116
997 39
998 156
999 167
1000 88

<precedence relations>
1,11
1,12
1,13
1,14
2,9
2,10
2,11
2,12
2,13
2,14
3,9
4,9
5,9
5,10
6,9
6,10
6,11
7,9
7,10
7,11
7,12
8,9
9,15
9,16
9,19
9,20
10,15
10,16
10,17
10,20
11,15
11,16
11,17
11,18
11,19
11,20
12,15
12,16
12,17
12,18
12,19
12,20
13,15
13,16
13,17
13,18
13,19
13,20
14,15
14,16
14,17
14,18
14,19
14,20
15,21
15,22
15,25
15,26
16,22
16,24
16,25
16,26
16,27
17,21
17,22
17,23
17,32
18,21
18,22
18,23
18,24
18,25
18,26
18,27
19,21
19,22
19,23
19,24
19,25
19,26
19,27
20,21
20,22
21,28
21,29
21,33
22,28
22,29
22,30
22,31
22,36
22,37
23,28
23,29
23,30
23,33
23,34
23,35
23,36
23,37
24,28
24,29
24,30
24,31
24,32
24,33
24,34
24,35
24,36
24,37
25,28
25,29
25,30
25,32
25,37
26,28
26,29
26,30
26,31
26,32
26,37
27,35
27,37
28,38
28,42
28,43
29,38
29,39
29,40
29,41
29,42
29,43
30,38
30,41
30,42
30,43
31,38
31,39
31,40
31,41
31,42
31,43
32,38
32,39
32,40
32,41
32,42
32,43
33,38
33,39
33,40
33,41
33,42
33,43
34,38
34,39
34,40
34,41
34,42
34,43
35,38
35,39
35,40
35,41
35,42
35,43
36,38
36,39
36,40
36,41
36,42
36,43
37,38
37,39
37,40
37,41
37,42
37,43
38,44
38,45
38,46
38,47
38,48
38,49
39,44
39,45
39,46
39,47
39,48
39,49
40,44
40,45
40,46
40,47
40,48
40,49
41,44
41,45
41,46
41,47
41,48
41,49
42,44
42,45
42,49
43,44
43,47
44,52
44,57
45,50
45,51
45,52
45,53
45,54
45,56
45,57
46,50
46,51
46,52
46,53
46,55
46,56
46,57
47,50
47,51
47,52
47,56
47,57
48,50
48,55
48,62
49,50
49,51
49,52
49,53
49,54
50,154
50,162
50,164
50,165
51,58
51,65
52,58
52,59
52,60
52,61
52,62
53,58
53,59
53,60
53,61
53,62
54,60
55,58
55,59
56,58
56,59
56,60
56,62
57,58
57,59
57,60
58,63
58,64
58,66
58,67
58,68
58,69
58,70
59,63
59,64
59,65
59,66
60,63
60,64
60,65
60,69
60,70
61,63
61,64
61,65
61,66
61,67
61,68
62,92
62,99
62,100
63,184
64,71
64,72
65,71
65,72
65,73
65,74
65,76
66,71
66,72
66,73
66,74
66,75
67,71
67,72
67,73
67,74
67,75
68,76
68,166
69,71
69,72
69,73
69,74
70,71
70,73
71,77
72,77
72,78
72,83
73,77
73,78
73,79
73,80
73,81
73,82
74,77
74,78
74,79
74,80
75,77
75,82
75,83
76,400
77,84
77,85
77,93
77,94
78,84
78,85
78,86
78,87
79,84
79,85
79,86
79,87
80,84
80,93
80,94
81,84
81,85
81,93
81,94
82,84
82,85
82,86
82,87
83,84
83,87
84,88
84,89
84,90
84,91
85,88
85,89
85,90
85,92
86,89
86,90
86,91
86,93
86,94
87,88
87,89
87,90
87,91
87,92
87,93
87,94
88,95
88,99
89,95
89,96
89,97
89,98
89,99
89,100
89,101
90,95
90,96
90,97
90,98
90,99
90,100
90,101
91,95
91,96
91,97
91,98
91,99
91,100
91,101
92,95
92,96
92,97
92,98
92,101
93,96
94,217
95,102
95,103
95,110
95,112
96,102
97,102
97,103
97,104
98,102
98,103
98,104
99,102
99,103
99,104
100,102
100,103
100,104
101,102
101,103
101,104
102,105
102,106
102,107
102,108
102,111
103,105
103,106
103,108
103,109
104,105
104,106
104,110
104,111
104,112
105,113
105,114
105,115
105,116
105,117
105,118
105,119
105,120
105,121
106,113
106,114
106,115
106,116
107,113
107,114
107,115
107,116
108,113
108,114
108,115
108,116
108,117
108,118
109,118
110,113
110,114
110,115
110,117
110,121
111,113
111,114
111,115
111,116
111,117
111,127
112,120
112,158
113,122
113,123
113,126
113,128
114,122
114,129
114,130
114,136
115,122
115,123
116,122
116,124
116,147
117,122
117,123
117,124
117,125
117,126
117,147
118,122
118,123
118,127
118,147
119,122
119,123
119,124
119,125
119,126
119,147
120,138
121,122
121,123
122,131
122,137
122,148
123,131
123,132
123,133
124,131
124,132
124,163
124,164
125,131
125,132
125,133
125,134
126,131
126,132
126,138
127,131
127,132
127,133
127,134
127,136
128,131
128,132
128,133
128,134
128,135
128,136
128,143
129,340
130,135
131,145
132,258
132,279
132,284
133,139
133,140
133,141
133,142
133,158
134,139
134,140
134,144
134,148
135,139
135,140
135,141
135,142
135,147
135,157
135,158
136,139
136,140
136,141
136,146
137,139
137,141
137,143
137,149
138,139
138,163
139,150
139,151
139,152
139,153
139,154
139,164
140,150
140,151
141,150
141,151
141,152
141,155
142,150
143,150
143,151
143,152
143,154
143,157
143,158
144,150
144,151
145,150
145,151
145,152
145,153
145,154
146,151
146,157
146,163
147,150
147,151
147,152
147,155
148,150
149,150
149,151
149,152
149,153
149,154
149,155
149,156
149,157
149,158
150,159
150,160
150,161
150,162
150,165
151,261
152,159
152,160
152,161
152,162
153,159
153,160
153,161
153,162
154,159
154,160
154,169
155,159
155,160
155,161
155,162
155,163
155,164
155,165
156,159
156,160
156,162
156,163
156,165
157,164
157,165
158,159
158,165
158,169
159,166
159,167
159,168
160,192
161,166
161,177
162,166
162,167
162,168
162,169
163,166
163,167
163,168
163,169
164,166
164,167
164,168
164,169
165,166
166,170
166,171
166,172
166,173
166,174
166,176
167,170
167,171
167,174
167,177
168,170
168,171
168,173
168,175
168,177
169,186
169,187
169,198
170,178
170,179
171,178
171,179
172,178
172,183
172,191
173,178
173,181
174,178
174,179
174,180
174,181
174,182
174,183
174,184
175,178
175,179
175,180
175,181
175,188
175,189
176,178
176,179
176,182
177,178
178,185
178,186
179,185
180,185
180,186
180,187
180,190
180,191
181,185
181,186
181,190
181,191
182,185
182,186
182,187
182,188
182,189
182,190
183,185
184,188
184,195
184,196
184,197
185,192
185,193
185,198
186,192
186,193
186,194
186,195
186,196
186,197
187,231
187,235
188,192
188,198
189,192
189,193
189,194
189,195
189,196
189,197
189,198
190,192
190,193
190,194
190,195
190,196
190,197
190,198
191,192
191,193
191,194
191,195
191,196
191,197
191,198
192,199
192,200
192,201
192,202
192,203
192,204
192,205
192,206
193,199
193,200
193,201
193,202
193,203
193,204
193,205
193,206
194,199
194,200
194,201
194,202
194,203
194,204
194,206
195,199
195,200
195,201
195,202
196,199
196,200
197,199
197,200
197,201
197,202
197,203
197,205
198,397
199,207
199,208
199,209
199,211
200,207
200,208
200,209
200,210
200,211
200,214
201,207
201,213
202,207
202,208
202,209
202,214
203,207
203,208
203,209
203,210
203,211
203,214
204,207
204,212
204,214
205,207
205,208
206,279
207,215
207,219
208,215
208,216
208,217
208,218
208,219
208,220
208,221
209,216
209,222
210,215
210,216
210,217
210,218
211,215
211,216
212,215
212,216
212,217
212,218
213,215
213,216
213,217
213,218
213,220
213,222
214,215
214,244
215,223
216,223
216,224
216,225
216,237
217,223
217,224
217,225
217,226
217,227
218,223
218,224
218,225
218,236
218,237
219,223
219,224
219,227
219,229
219,236
219,244
220,223
220,224
221,223
221,228
222,286
223,230
223,231
224,230
224,231
225,230
225,231
225,232
225,235
225,241
226,230
226,231
226,232
226,233
226,234
226,236
226,241
227,230
227,231
227,237
228,230
228,231
228,232
228,233
229,276
230,238
230,239
230,240
230,242
230,245
230,246
231,238
231,239
231,240
231,246
232,238
232,239
232,243
232,244
232,245
232,246
233,238
233,239
233,244
234,341
235,239
235,240
236,238
236,246
237,241
237,242
237,243
237,251
238,247
238,248
238,249
238,250
238,251
239,247
239,248
239,249
239,250
239,251
240,247
240,248
240,249
240,250
240,251
241,247
241,248
242,247
242,248
242,261
242,263
243,247
243,248
243,249
243,261
243,263
244,247
244,248
244,250
244,251
245,248
246,258
247,252
247,253
247,254
247,257
247,272
247,278
248,252
248,253
248,254
249,252
249,256
250,252
250,253
250,254
250,255
250,256
250,265
251,252
251,253
251,254
251,255
251,256
252,259
253,258
253,260
253,284
254,258
254,259
254,260
254,264
255,258
255,259
255,260
255,261
255,263
256,356
256,373
256,388
257,258
257,259
257,262
257,265
258,266
258,267
258,268
258,285
258,286
259,266
259,267
259,270
259,284
260,266
260,267
260,268
260,271
260,285
260,286
261,266
261,267
261,268
261,269
262,266
262,267
263,266
263,267
263,268
263,269
263,272
263,285
264,332
264,339
265,266
266,274
266,306
267,273
267,274
267,275
267,294
268,273
268,274
268,276
268,277
269,278
270,273
270,279
271,273
272,273
272,275
272,294
273,280
273,302
274,282
274,305
274,308
274,309
275,280
275,283
275,287
275,299
275,301
276,280
276,281
276,282
276,283
277,292
278,280
278,283
278,284
279,280
279,281
279,282
279,285
279,286
279,300
280,288
280,289
280,290
281,288
281,289
281,294
282,293
283,288
283,289
283,290
284,288
284,289
284,302
285,288
285,289
285,302
286,288
286,289
286,302
287,288
287,290
287,291
287,292
288,295
288,296
289,295
289,296
289,297
289,298
289,309
290,295
290,296
290,297
291,295
291,297
291,298
291,300
291,302
292,295
292,296
292,297
292,298
292,302
293,295
293,316
293,317
294,295
294,299
294,301
295,307
296,303
297,303
297,304
297,305
297,306
297,307
297,308
297,313
298,303
298,304
299,303
299,304
300,303
300,304
300,305
300,309
300,314
301,303
301,305
301,306
302,308
302,320
302,325
302,326
303,310
303,311
303,326
304,310
304,311
304,312
304,316
305,310
305,311
305,315
305,317
306,310
307,310
307,311
307,312
307,314
307,318
307,323
308,310
309,310
309,312
309,313
309,317
309,318
310,319
310,321
310,331
311,319
312,319
312,321
312,322
312,324
313,319
313,320
313,321
313,322
313,323
313,324
314,319
314,320
314,321
315,319
315,320
315,321
315,322
315,324
316,319
316,320
316,323
316,324
317,319
317,320
317,321
318,360
318,388
319,327
320,465
320,503
320,521
321,349
321,362
322,325
322,326
323,325
323,326
324,325
324,326
324,327
325,328
325,329
325,330
325,331
325,332
325,335
326,328
326,329
326,330
326,331
326,335
327,328
327,329
327,330
327,332
327,333
327,334
327,335
328,338
328,339
329,336
329,341
329,342
330,336
330,340
331,336
331,337
331,338
331,339
332,336
332,340
332,341
332,342
333,336
333,337
333,341
333,342
334,336
334,337
335,337
335,346
336,343
336,344
336,345
336,346
336,347
336,348
337,343
337,344
337,347
338,454
339,343
339,344
339,348
340,343
340,344
340,345
340,346
341,343
341,346
341,368
341,369
341,376
342,343
342,344
342,345
342,346
342,361
343,473
344,349
344,350
344,354
344,362
345,349
345,350
345,351
346,350
346,353
347,349
347,350
347,351
347,352
348,648
349,357
349,358
349,359
349,367
349,370
350,355
350,356
350,357
351,355
352,360
352,361
352,362
353,415
354,355
354,356
355,363
355,364
355,370
356,363
357,363
357,364
357,365
358,363
358,364
358,365
358,366
359,363
359,364
359,368
359,369
360,367
361,363
361,366
361,381
362,363
362,364
362,365
362,366
362,367
363,374
364,375
364,389
365,371
365,372
365,373
365,382
365,385
366,372
366,387
367,371
367,376
368,371
368,372
368,373
368,374
369,371
369,372
370,371
370,372
371,377
371,378
371,379
372,378
372,383
372,384
373,377
373,378
373,379
373,380
373,381
374,377
374,378
374,382
374,385
375,379
376,377
376,378
376,379
376,380
377,386
377,387
378,386
378,389
379,386
380,624
380,695
381,455
381,539
382,387
383,388
383,392
384,386
384,389
385,386
385,389
386,390
386,391
386,392
386,393
386,394
386,395
386,396
386,397
386,398
387,390
387,393
387,397
388,394
389,390
389,391
389,392
389,399
390,400
390,401
390,402
390,403
390,404
391,403
391,404
392,400
392,422
393,400
393,422
394,400
394,401
394,402
395,400
395,412
395,422
396,400
396,401
396,402
396,405
397,400
397,401
397,422
398,400
398,414
398,422
399,400
399,401
399,402
399,403
399,404
399,405
400,406
400,407
400,408
400,409
400,410
400,411
401,407
402,406
402,407
402,412
402,413
403,406
403,407
403,408
403,409
404,406
404,407
404,408
404,410
405,406
405,407
405,408
405,409
405,414
405,422
406,415
406,416
407,415
407,421
408,415
408,416
408,417
408,418
408,419
408,420
409,415
409,416
410,415
410,416
411,417
411,418
412,803
412,835
412,851
413,422
414,415
414,416
415,433
416,423
416,424
416,425
416,438
417,423
417,424
418,427
419,425
419,490
420,423
420,426
421,423
421,424
421,425
421,426
422,546
423,428
423,434
424,428
424,429
424,430
424,431
425,431
425,464
425,493
426,428
426,432
427,428
427,429
427,430
427,431
427,432
427,433
428,440
428,456
429,437
429,439
430,680
431,562
431,590
431,612
432,435
432,436
432,438
433,435
433,443
434,435
434,451
435,568
436,441
437,441
437,463
437,478
438,441
438,442
439,442
439,443
440,701
440,819
440,904
441,453
442,445
442,449
442,450
442,451
442,454
442,455
443,444
443,446
443,447
443,448
443,452
443,463
444,456
444,457
445,456
445,457
445,458
445,463
446,456
447,456
447,467
447,480
448,456
448,460
448,480
449,456
449,458
450,459
450,599
450,610
451,456
451,457
452,554
452,579
453,456
453,461
453,483
453,490
454,456
454,462
455,938
456,465
456,466
457,464
457,465
457,466
457,467
457,468
457,469
458,464
458,465
458,466
459,744
459,756
460,930
461,464
461,465
461,466
462,464
462,469
463,467
463,480
464,470
465,602
466,470
467,470
467,471
468,470
468,471
469,471
469,472
469,473
470,474
470,476
470,479
470,481
471,474
471,475
471,476
471,477
472,474
472,477
472,478
473,480
474,934
475,614
476,482
477,482
477,483
477,484
477,485
477,486
477,488
478,637
479,482
479,484
480,482
480,508
481,482
481,486
481,487
481,508
482,492
482,509
483,489
483,493
484,678
485,489
486,903
486,964
487,491
487,561
488,489
488,490
488,491
488,492
489,494
489,495
490,494
490,495
490,496
490,511
491,593
492,494
492,495
492,496
492,511
493,494
493,497
494,498
494,500
494,516
495,498
495,502
495,519
496,499
497,498
497,499
497,500
497,501
497,502
497,503
497,504
498,505
498,582
498,590
499,534
500,505
501,505
501,506
501,511
502,505
502,506
502,510
503,505
503,506
503,507
503,508
503,509
504,505
504,506
504,507
504,508
505,513
505,517
505,599
506,512
506,513
506,515
506,517
506,524
507,512
507,513
507,519
508,702
509,516
509,526
510,512
510,514
510,518
511,831
511,949
512,523
513,919
514,522
515,520
517,722
517,909
518,520
518,521
518,524
519,520
519,524
520,525
520,526
520,527
520,528
521,526
521,528
522,525
522,526
522,527
522,528
523,525
523,526
523,527
523,528
524,542
525,529
525,530
526,529
526,530
526,531
526,532
526,533
526,534
527,529
527,530
528,529
528,530
528,531
528,532
529,535
529,536
530,538
530,542
531,537
531,541
533,543
533,552
534,535
534,539
534,540
534,565
535,544
536,544
536,545
537,544
537,545
537,546
537,547
538,561
539,544
540,710
541,546
541,548
542,544
542,547
543,544
543,545
544,549
545,551
545,555
545,557
546,549
546,552
547,549
547,550
547,565
548,550
549,553
549,554
549,555
549,556
550,557
551,553
551,554
551,556
551,558
551,559
552,553
553,560
553,561
553,567
553,568
554,561
554,563
554,566
555,560
555,561
555,562
555,563
555,572
556,560
556,561
556,562
557,564
558,560
558,561
558,572
559,560
559,561
559,562
559,565
560,569
560,570
560,571
560,573
560,574
561,569
562,856
563,649
563,654
564,578
565,569
565,570
565,571
565,572
565,573
565,574
566,571
566,574
567,569
567,570
568,569
568,571
569,575
570,575
570,576
570,579
571,575
571,576
571,577
571,578
572,575
572,576
573,575
573,576
574,631
574,636
575,580
575,581
575,582
575,583
575,585
575,590
576,580
577,580
577,581
577,585
578,580
578,582
578,584
579,907
580,589
580,603
581,586
582,586
582,588
582,591
582,611
583,587
583,622
583,695
584,590
585,586
585,707
586,703
587,687
588,592
588,593
588,594
588,595
588,596
588,597
588,598
588,600
589,592
589,599
590,592
590,594
591,597
591,598
591,601
592,601
592,602
593,601
593,602
593,603
594,601
594,602
595,743
596,692
597,603
597,605
598,662
598,809
599,604
599,605
600,601
601,609
602,606
602,607
602,608
602,610
603,647
603,690
604,606
604,607
604,611
605,608
605,612
606,613
606,614
606,618
606,620
607,613
607,617
607,623
607,624
608,613
608,616
608,618
608,619
609,613
609,614
609,615
610,613
610,614
611,615
611,835
612,734
612,774
613,621
613,622
614,621
614,622
614,624
615,742
616,622
616,703
616,713
617,625
618,822
618,900
618,916
619,623
619,668
620,640
621,626
621,627
622,692
622,783
623,627
624,629
624,661
625,628
625,655
626,630
626,631
626,632
626,633
627,633
628,732
628,785
629,675
630,636
631,638
631,714
632,635
632,637
632,639
633,634
633,683
634,640
634,641
634,642
634,646
634,689
635,643
635,785
636,640
636,642
637,640
637,641
637,642
637,647
638,644
638,645
638,809
638,854
639,649
640,650
641,679
642,649
642,656
643,732
643,736
645,745
646,738
646,777
647,648
647,649
648,651
648,653
648,655
648,656
648,659
649,651
649,652
649,653
649,658
649,678
650,651
650,652
650,653
650,654
650,657
650,660
650,661
651,669
652,765
653,662
653,711
654,788
654,953
655,665
655,676
656,842
657,788
657,845
658,740
658,747
658,808
658,809
658,857
659,663
659,664
659,668
659,697
659,737
660,662
660,663
660,666
660,667
661,749
662,845
663,782
664,780
665,674
665,695
666,670
666,703
667,670
667,671
667,672
667,673
667,675
667,677
667,678
668,673
668,722
668,746
668,893
668,943
669,672
669,676
670,779
670,795
671,680
671,682
672,803
672,959
673,899
674,679
674,683
675,679
675,681
676,679
676,680
676,684
676,691
676,695
677,679
677,685
678,679
679,686
679,687
679,688
680,687
681,688
681,936
682,686
682,687
683,689
683,691
683,818
684,709
684,734
685,690
685,691
685,722
685,736
686,823
687,692
687,693
687,694
687,696
688,847
688,890
689,694
689,745
690,692
690,695
691,707
691,770
691,870
692,697
693,698
693,699
693,700
693,705
694,783
694,844
695,696
695,777
695,826
695,833
696,701
696,705
696,807
697,702
698,701
698,703
698,704
699,706
700,701
700,702
700,707
701,708
702,709
703,711
704,708
704,709
704,713
705,712
705,830
706,710
707,708
708,715
709,718
709,760
710,714
711,719
712,914
712,981
713,716
713,717
713,718
714,722
714,753
714,769
715,975
715,994
716,725
717,720
717,726
718,724
718,727
718,784
719,720
719,721
719,723
720,728
720,729
720,731
721,728
721,789
723,732
723,881
723,891
724,728
724,744
725,728
725,730
726,764
727,748
727,750
727,781
728,735
728,738
729,733
729,734
729,737
730,734
731,736
731,878
731,910
732,857
732,976
733,742
733,797
733,854
733,904
734,739
734,743
735,739
735,740
736,745
736,938
737,741
737,744
738,741
738,742
739,746
739,758
739,808
739,818
740,746
740,751
740,828
740,841
740,914
741,749
741,750
741,754
742,748
742,752
742,756
743,747
743,753
744,843
745,755
745,876
745,922
746,975
747,760
747,916
747,964
748,876
748,936
749,758
749,819
750,759
751,757
751,880
751,925
751,926
751,944
752,761
752,773
753,762
754,894
754,912
755,757
755,792
756,802
756,832
757,908
757,949
758,766
758,767
759,764
759,765
760,866
761,918
761,929
762,763
763,768
764,770
764,774
764,842
765,772
765,791
765,794
765,795
767,769
767,771
767,773
767,775
768,776
768,777
768,778
768,779
769,876
769,944
770,779
770,845
771,948
771,957
771,964
772,776
774,991
775,837
775,920
776,780
776,785
777,784
778,780
778,781
778,782
778,783
778,784
779,780
780,787
780,788
780,864
781,844
781,862
781,873
782,789
782,790
783,850
784,786
784,791
785,786
786,798
786,800
786,803
786,843
787,797
787,802
787,877
787,896
787,902
788,792
788,793
788,796
788,799
789,792
789,794
789,795
790,869
790,980
790,990
791,854
791,922
791,974
793,807
793,884
793,924
794,803
794,805
794,806
795,801
795,802
796,803
797,804
798,801
798,836
800,885
800,923
801,814
802,809
802,855
802,878
803,812
803,929
803,935
804,850
804,881
804,906
805,808
805,811
805,813
805,867
806,808
806,810
806,886
807,815
807,926
807,960
808,951
809,816
809,819
810,816
810,844
810,950
811,903
811,992
812,821
812,873
812,932
813,817
813,863
814,818
814,825
815,820
816,825
816,939
816,999
817,869
817,916
817,925
817,994
818,823
819,822
819,824
819,900
821,939
821,947
822,862
822,903
822,909
823,827
823,828
823,832
823,839
824,826
824,830
824,831
824,833
824,858
825,829
825,834
826,970
827,835
827,837
828,998
829,840
830,838
831,895
831,908
832,872
832,907
832,966
833,836
833,897
835,840
835,842
835,845
835,846
835,847
836,839
836,844
836,917
836,920
836,933
837,924
837,936
838,841
838,843
839,973
842,848
842,852
842,853
843,851
843,861
843,897
845,849
845,850
846,854
846,880
846,983
847,871
848,855
848,857
848,858
848,888
849,856
849,858
850,860
850,861
852,930
853,859
853,862
854,941
854,952
855,866
856,863
856,864
857,868
857,966
858,867
858,893
858,998
859,883
860,888
860,920
861,865
861,869
861,905
861,907
861,911
862,921
863,875
863,876
863,877
864,913
865,873
865,874
866,871
866,872
866,974
868,870
868,968
869,872
869,997
870,939
871,879
871,925
872,929
874,890
874,944
875,880
875,881
875,883
876,882
877,878
877,904
878,884
878,885
880,887
880,932
881,888
882,885
882,889
882,890
883,886
884,897
885,892
885,895
885,939
886,896
887,891
888,946
889,895
889,949
889,965
890,893
890,894
891,902
892,901
892,956
892,967
894,898
895,899
895,903
895,954
896,900
896,904
898,908
899,906
900,914
900,945
902,911
902,958
904,905
904,907
904,942
905,910
905,912
905,913
905,914
906,911
908,909
908,915
909,918
909,964
910,916
911,929
911,950
911,953
911,967
912,920
912,935
913,919
913,922
915,917
915,921
916,979
917,927
917,928
918,943
919,924
919,928
919,930
920,923
920,925
920,926
920,960
921,992
922,923
923,931
923,932
923,936
924,933
924,935
924,972
926,929
927,930
927,934
930,937
930,940
931,939
931,999
934,941
935,938
935,947
935,994
937,943
937,946
938,944
938,949
938,952
940,945
940,947
940,948
940,950
941,942
942,956
943,951
943,953
943,954
944,986
945,955
945,957
948,952
948,956
952,963
953,960
954,959
954,962
954,966
954,982
955,958
955,961
957,963
957,973
958,965
959,968
959,969
960,966
961,964
961,967
964,990
966,974
967,970
967,975
967,977
967,978
968,973
969,971
969,972
969,976
971,979
972,983
972,984
972,986
974,984
976,985
977,980
977,981
977,982
979,990
980,988
980,989
983,992
983,993
984,991
985,987
987,996
988,994
989,997
991,998
992,997
993,995
993,999
993,1000

<end>
